NAME : a280.3614.tour
COMMENT : Cost = 726_3614
COMMENT : Found by LKH [Keld Helsgaun] Thu Nov 16 17:25:38 2017
TYPE : TOUR
DIMENSION : 284
TOUR_SECTION
1
279
278
259
263
267
138
150
178
177
176
175
161
162
163
173
106
105
104
90
80
79
78
77
75
76
74
73
72
71
70
69
68
67
66
65
64
63
62
61
122
154
129
130
131
132
133
16
271
272
273
274
275
276
281
2
242
241
240
239
238
237
236
235
234
233
232
231
246
251
230
229
228
227
226
225
224
223
222
221
220
219
218
217
216
215
214
213
212
211
210
209
207
142
143
144
200
201
197
193
198
199
145
146
147
148
141
140
265
253
254
257
256
255
250
247
245
244
243
284
7
8
10
11
12
13
14
24
23
25
22
26
27
28
29
31
32
33
36
38
37
50
51
52
49
48
53
54
47
46
55
56
45
44
57
58
59
60
43
42
41
40
39
35
34
30
125
124
123
126
127
128
21
20
19
18
17
15
9
6
5
283
4
260
261
262
269
268
136
137
156
152
151
157
158
159
160
174
107
110
108
109
89
81
82
83
88
112
111
114
113
87
84
85
86
116
115
117
118
119
120
121
153
155
135
134
270
277
282
3
258
264
266
139
149
179
180
181
182
183
184
185
186
187
164
172
171
170
169
101
102
103
91
92
93
94
95
96
97
98
99
100
168
167
166
165
188
189
190
191
192
194
195
196
202
203
204
205
206
208
252
249
248
280
-1
EOF
